problem_generation/data/GISP/train/er_n=67_m=1320_p=0.60_SET2_setparam=100.00_alpha=0.50_490.lp
maximize
OBJ:100x0 + 100x1 + 100x2 + 100x3 + 100x4 + 100x5 + 100x6 + 100x7 + 100x8 + 100x9 + 100x10 + 100x11 + 100x12 + 100x13 + 100x14 + 100x15 + 100x16 + 100x17 + 100x18 + 100x19 + 100x20 + 100x21 + 100x22 + 100x23 + 100x24 + 100x25 + 100x26 + 100x27 + 100x28 + 100x29 + 100x30 + 100x31 + 100x32 + 100x33 + 100x34 + 100x35 + 100x36 + 100x37 + 100x38 + 100x39 + 100x40 + 100x41 + 100x42 + 100x43 + 100x44 + 100x45 + 100x46 + 100x47 + 100x48 + 100x49 + 100x50 + 100x51 + 100x52 + 100x53 + 100x54 + 100x55 + 100x56 + 100x57 + 100x58 + 100x59 + 100x60 + 100x61 + 100x62 + 100x63 + 100x64 + 100x65 + 100x66 - y18_26 - y26_39 - y18_35 - y8_9 - y29_41 - y40_41 - y8_18 - y6_48 - y29_50 - y48_63 - y0_23 - y6_57 - y29_59 - y40_59 - y6_66 - y10_27 - y41_42 - y2_32 - y10_45 - y3_6 - y44_56 - y3_24 - y43_60 - y3_33 - y22_46 - y24_65 - y3_42 - y15_16 - y15_25 - y18_21 - y36_57 - y17_53 - y47_66 - y9_49 - y5_60 - y29_36 - y48_49 - y48_58 - y6_52 - y29_54 - y21_50 - y21_59 - y2_27 - y54_65 - y25_38 - y51_59 - y32_55 - y32_64 - y3_37 - y36_43 - y5_46 - y21_27 - y6_38 - y6_47 - y40_49 - y6_65 - y33_37 - y10_44 - y32_41 - y32_50 - y43_50 - y13_46 - y35_46 - y3_23 - y32_59 - y1_53 - y13_55 - y16_51 - y17_34 - y17_43 - y28_43 - y47_56 - y28_52 - y6_15 - y21_22 - y21_31 - y29_44 - y42_63 - y10_12 - y10_21 - y2_26 - y20_62 - y25_28 - y13_32 - y13_41 - y3_18 - y32_54 - y43_54 - y43_63 - y1_57 - y13_59 - y36_42 - y17_38 - y36_51 - y47_51 - y6_10 - y17_56 - y5_54 - y6_28 - y9_61 - y61_62 - y42_58 - y21_35 - y30_65 - y39_43 - y20_39 - y10_16 - y31_48 - y23_53 - y2_30 - y20_66 - y13_27 - y3_4 - y51_53 - y1_34 - y24_36 - y35_36 - y16_32 - y43_49 - y32_58 - y43_58 - y24_54 - y13_63 - y35_63 - y16_59 - y17_24 - y46_60 - y57_60 - y5_31 - y49_65 - y42_53 - y27_64 - y30_60 - y42_62 - y20_34 - y11_65 - y12_39 - y20_52 - y54_63 - y4_44 - y16_18 - y43_53 - y13_49 - y16_45 - y1_56 - y16_54 - y5_17 - y46_55 - y38_51 - y17_28 - y46_64 - y57_64 - y9_24 - y38_60 - y17_37 - y28_37 - y6_9 - y6_18 - y19_46 - y8_55 - y30_55 - y42_57 - y20_29 - y12_25 - y12_34 - y12_43 - y20_56 - y1_15 - y12_61 - y16_22 - y34_58 - y1_33 - y1_42 - y13_44 - y24_44 - y5_12 - y46_50 - y46_59 - y15_62 - y38_64 - y7_58 - y6_13 - y8_41 - y19_41 - y27_54 - y50_56 - y30_50 - y27_63 - y19_59 - y31_33 - y23_38 - y31_51 - y4_34 - y23_47 - y12_56 - y1_19 - y23_56 - y34_53 - y64_66 - y34_62 - y37_58 - y1_46 - y5_7 - y9_14 - y26_48 - y46_63 - y18_53 - y15_66 - y7_62 - y19_27 - y19_36 - y0_32 - y8_45 - y27_58 - y11_41 - y0_50 - y11_50 - y8_63 - y30_63 - y0_59 - y52_60 - y20_37 - y31_37 - y4_29 - y23_42 - y4_47 - y1_23 - y16_21 - y37_53 - y45_66 - y56_66 - y14_60 - y15_34 - y26_34 - y5_11 - y46_49 - y15_43 - y15_52 - y26_52 - y49_54 - y15_61 - y7_57 - y18_57 - y19_22 - y27_35 - y7_66 - y18_66 - y30_31 - y0_27 - y11_27 - y8_40 - y11_36 - y30_49 - y41_46 - y30_58 - y0_54 - y41_55 - y31_32 - y12_28 - y12_37 - y23_37 - y25_56 - y1_9 - y37_39 - y34_52 - y45_52 - y53_65 - y14_46 - y37_48 - y22_59 - y34_61 - y56_61 - y14_55 - y14_64 - y15_29 - y7_34 - y18_34 - y38_49 - y26_56 - y18_52 - y8_17 - y26_65 - y11_13 - y11_22 - y29_58 - y30_35 - y0_31 - y19_44 - y11_40 - y11_49 - y12_14 - y44_46 - y25_51 - y1_4 - y3_32 - y22_45 - y45_47 - y14_41 - y34_56 - y14_50 - y56_65 - y15_24 - y26_33 - y15_42 - y26_42 - y7_38 - y15_51 - y7_47 - y0_8 - y7_56 - y8_21 - y48_57 - y29_53 - y0_26 - y40_62 - y21_58 - y41_45 - y44_50 - y52_63 - y25_46 - y10_66 - y3_27 - y34_42 - y37_38 - y22_49 - y34_51 - y45_51 - y22_58 - y15_19 - y7_15 - y3_63 - y14_63 - y15_28 - y26_28 - y7_24 - y18_24 - y26_37 - y47_60 - y59_62 - y7_33 - y17_65 - y28_65 - y29_39 - y0_12 - y11_12 - y19_25 - y48_61 - y33_36 - y4_9 - y10_43 - y41_58 - y52_58 - y44_54 - y33_63 - y22_26 - y44_63 - y51_62 - y34_37 - y3_31 - y22_44 - y37_42 - y22_53 - y14_49 - y7_10 - y15_23 - y55_59 - y7_19 - y18_28 - y17_60 - y7_37 - y29_52 - y40_61 - y41_44 - y2_25 - y25_27 - y2_34 - y2_52 - y32_53 - y14_26 - y43_62 - y3_35 - y14_35 - y36_41 - y47_50 - y18_23 - y9_42 - y47_59 - y9_51 - y21_25 - y48_51 - y40_47 - y21_43 - y29_56 - y40_56 - y21_61 - y54_58 - y2_29 - y33_44 - y25_40 - y51_61 - y14_21 - y35_53 - y3_30 - y43_66 - y24_62 - y16_58 - y17_32 - y7_9 - y36_45 - y36_54 - y9_37 - y36_63 - y6_22 - y58_60 - y61_65 - y6_40 - y21_38 - y6_49 - y10_19 - y39_55 - y39_64 - y25_26 - y31_60 - y10_37 - y25_35 - y2_42 - y32_43 - y51_56 - y24_39 - y32_52 - y43_52 - y35_48 - y16_44 - y24_66 - y35_66 - y5_43 - y17_45 - y47_58 - y9_41 - y17_54 - y6_35 - y42_65 - y21_42 - y39_50 - y31_46 - y10_23 - y2_19 - y20_55 - y54_57 - y23_51 - y2_28 - y31_64 - y54_66 - y23_60 - y2_37 - y4_56 - y3_11 - y16_39 - y1_50 - y13_52 - y32_65 - y35_52 - y1_59 - y13_61 - y35_61 - y5_20 - y5_47 - y17_49 - y28_49 - y9_45 - y27_62 - y6_39 - y8_58 - y0_63 - y11_63 - y39_45 - y10_18 - y2_14 - y31_50 - y20_59 - y23_64 - y4_60 - y32_42 - y35_38 - y43_51 - y16_34 - y24_47 - y35_47 - y13_56 - y35_56 - y16_52 - y65_66 - y16_61 - y46_62 - y9_22 - y17_35 - y6_7 - y9_40 - y5_51 - y27_48 - y58_63 - y42_46 - y27_57 - y27_66 - y39_40 - y31_36 - y39_49 - y23_32 - y23_41 - y20_54 - y4_37 - y31_54 - y54_56 - y13_15 - y4_55 - y1_40 - y13_42 - y35_42 - y16_47 - y17_21 - y46_57 - y38_53 - y49_53 - y26_60 - y27_34 - y19_39 - y27_52 - y50_54 - y27_61 - y61_63 - y30_57 - y12_18 - y8_66 - y12_27 - y23_27 - y31_40 - y39_53 - y23_36 - y20_49 - y4_32 - y31_49 - y4_50 - y24_28 - y53_64 - y16_24 - y45_60 - y35_37 - y1_44 - y37_65 - y5_14 - y9_12 - y57_61 - y9_21 - y18_51 - y18_60 - y8_34 - y19_43 - y30_43 - y27_56 - y19_52 - y30_52 - y42_54 - y0_48 - y12_13 - y20_26 - y11_57 - y12_22 - y20_35 - y0_66 - y11_66 - y12_40 - y4_36 - y1_30 - y45_64 - y3_58 - y5_9 - y15_50 - y26_50 - y46_65 - y7_46 - y49_52 - y38_61 - y49_61 - y7_55 - y8_20 - y7_64 - y19_29 - y8_38 - y11_43 - y19_56 - y4_13 - y23_26 - y4_40 - y34_41 - y53_54 - y22_48 - y34_50 - y45_50 - y22_57 - y34_59 - y56_59 - y37_55 - y22_66 - y37_64 - y15_27 - y5_13 - y46_51 - y18_41 - y7_59 - y18_59 - y48_60 - y19_33 - y30_33 - y29_65 - y40_65 - y8_42 - y4_8 - y23_30 - y52_66 - y33_62 - y4_35 - y22_34 - y34_45 - y1_20 - y53_58 - y45_54 - y3_57 - y37_59 - y3_66 - y14_66 - y38_42 - y18_45 - y8_10 - y15_58 - y26_58 - y0_15 - y11_15 - y19_28 - y0_24 - y11_24 - y40_60 - y21_65 - y0_42 - y12_16 - y60_65 - y4_12 - y44_48 - y44_57 - y25_53 - y10_64 - y44_66 - y25_62 - y14_34 - y22_47 - y37_45 - y3_61 - y14_61 - y55_62 - y7_22 - y59_60 - y26_35 - y17_63 - y8_14 - y8_23 - y6_62 - y40_64 - y33_34 - y41_47 - y4_7 - y41_56 - y25_39 - y4_16 - y52_65 - y2_46 - y25_48 - y10_59 - y25_57 - y3_29 - y22_42 - y34_44 - y22_51 - y3_47
 Subject to
C1: x0+x2 <=1 
C2: x0+x3 <=1 
C3: x0+x4 <=1 
C4: x0+x8-y0_8 <=1 
C5: x0+x9 <=1 
C6: x0+x11 <=1 
C7: x0+x12-y0_12 <=1 
C8: x0+x14 <=1 
C9: x0+x15-y0_15 <=1 
C10: x0+x16 <=1 
C11: x0+x17 <=1 
C12: x0+x20 <=1 
C13: x0+x23-y0_23 <=1 
C14: x0+x24-y0_24 <=1 
C15: x0+x25 <=1 
C16: x0+x26-y0_26 <=1 
C17: x0+x27-y0_27 <=1 
C18: x0+x28 <=1 
C19: x0+x29 <=1 
C20: x0+x31-y0_31 <=1 
C21: x0+x32-y0_32 <=1 
C22: x0+x33 <=1 
C23: x0+x37 <=1 
C24: x0+x42-y0_42 <=1 
C25: x0+x43 <=1 
C26: x0+x44 <=1 
C27: x0+x48-y0_48 <=1 
C28: x0+x49 <=1 
C29: x0+x50-y0_50 <=1 
C30: x0+x51 <=1 
C31: x0+x54-y0_54 <=1 
C32: x0+x55 <=1 
C33: x0+x56 <=1 
C34: x0+x59-y0_59 <=1 
C35: x0+x60 <=1 
C36: x0+x62 <=1 
C37: x0+x63-y0_63 <=1 
C38: x0+x66-y0_66 <=1 
C39: x1+x2 <=1 
C40: x1+x4-y1_4 <=1 
C41: x1+x6 <=1 
C42: x1+x9-y1_9 <=1 
C43: x1+x13 <=1 
C44: x1+x14 <=1 
C45: x1+x15-y1_15 <=1 
C46: x1+x16 <=1 
C47: x1+x19-y1_19 <=1 
C48: x1+x20-y1_20 <=1 
C49: x1+x21 <=1 
C50: x1+x23-y1_23 <=1 
C51: x1+x24 <=1 
C52: x1+x25 <=1 
C53: x1+x26 <=1 
C54: x1+x30-y1_30 <=1 
C55: x1+x31 <=1 
C56: x1+x32 <=1 
C57: x1+x33-y1_33 <=1 
C58: x1+x34-y1_34 <=1 
C59: x1+x35 <=1 
C60: x1+x40-y1_40 <=1 
C61: x1+x41 <=1 
C62: x1+x42-y1_42 <=1 
C63: x1+x44-y1_44 <=1 
C64: x1+x45 <=1 
C65: x1+x46-y1_46 <=1 
C66: x1+x47 <=1 
C67: x1+x50-y1_50 <=1 
C68: x1+x51 <=1 
C69: x1+x52 <=1 
C70: x1+x53-y1_53 <=1 
C71: x1+x54 <=1 
C72: x1+x55 <=1 
C73: x1+x56-y1_56 <=1 
C74: x1+x57-y1_57 <=1 
C75: x1+x59-y1_59 <=1 
C76: x1+x62 <=1 
C77: x1+x65 <=1 
C78: x2+x3 <=1 
C79: x2+x4 <=1 
C80: x2+x6 <=1 
C81: x2+x9 <=1 
C82: x2+x10 <=1 
C83: x2+x12 <=1 
C84: x2+x14-y2_14 <=1 
C85: x2+x15 <=1 
C86: x2+x19-y2_19 <=1 
C87: x2+x20 <=1 
C88: x2+x21 <=1 
C89: x2+x22 <=1 
C90: x2+x24 <=1 
C91: x2+x25-y2_25 <=1 
C92: x2+x26-y2_26 <=1 
C93: x2+x27-y2_27 <=1 
C94: x2+x28-y2_28 <=1 
C95: x2+x29-y2_29 <=1 
C96: x2+x30-y2_30 <=1 
C97: x2+x32-y2_32 <=1 
C98: x2+x34-y2_34 <=1 
C99: x2+x37-y2_37 <=1 
C100: x2+x38 <=1 
C101: x2+x39 <=1 
C102: x2+x40 <=1 
C103: x2+x41 <=1 
C104: x2+x42-y2_42 <=1 
C105: x2+x45 <=1 
C106: x2+x46-y2_46 <=1 
C107: x2+x47 <=1 
C108: x2+x51 <=1 
C109: x2+x52-y2_52 <=1 
C110: x2+x58 <=1 
C111: x2+x60 <=1 
C112: x2+x62 <=1 
C113: x2+x63 <=1 
C114: x2+x64 <=1 
C115: x2+x65 <=1 
C116: x2+x66 <=1 
C117: x3+x4-y3_4 <=1 
C118: x3+x6-y3_6 <=1 
C119: x3+x8 <=1 
C120: x3+x11-y3_11 <=1 
C121: x3+x13 <=1 
C122: x3+x14 <=1 
C123: x3+x18-y3_18 <=1 
C124: x3+x20 <=1 
C125: x3+x23-y3_23 <=1 
C126: x3+x24-y3_24 <=1 
C127: x3+x25 <=1 
C128: x3+x27-y3_27 <=1 
C129: x3+x28 <=1 
C130: x3+x29-y3_29 <=1 
C131: x3+x30-y3_30 <=1 
C132: x3+x31-y3_31 <=1 
C133: x3+x32-y3_32 <=1 
C134: x3+x33-y3_33 <=1 
C135: x3+x35-y3_35 <=1 
C136: x3+x36 <=1 
C137: x3+x37-y3_37 <=1 
C138: x3+x39 <=1 
C139: x3+x41 <=1 
C140: x3+x42-y3_42 <=1 
C141: x3+x47-y3_47 <=1 
C142: x3+x49 <=1 
C143: x3+x50 <=1 
C144: x3+x54 <=1 
C145: x3+x56 <=1 
C146: x3+x57-y3_57 <=1 
C147: x3+x58-y3_58 <=1 
C148: x3+x60 <=1 
C149: x3+x61-y3_61 <=1 
C150: x3+x62 <=1 
C151: x3+x63-y3_63 <=1 
C152: x3+x64 <=1 
C153: x3+x65 <=1 
C154: x3+x66-y3_66 <=1 
C155: x4+x7-y4_7 <=1 
C156: x4+x8-y4_8 <=1 
C157: x4+x9-y4_9 <=1 
C158: x4+x12-y4_12 <=1 
C159: x4+x13-y4_13 <=1 
C160: x4+x14 <=1 
C161: x4+x16-y4_16 <=1 
C162: x4+x17 <=1 
C163: x4+x19 <=1 
C164: x4+x20 <=1 
C165: x4+x24 <=1 
C166: x4+x29-y4_29 <=1 
C167: x4+x30 <=1 
C168: x4+x32-y4_32 <=1 
C169: x4+x34-y4_34 <=1 
C170: x4+x35-y4_35 <=1 
C171: x4+x36-y4_36 <=1 
C172: x4+x37-y4_37 <=1 
C173: x4+x38 <=1 
C174: x4+x40-y4_40 <=1 
C175: x4+x42 <=1 
C176: x4+x44-y4_44 <=1 
C177: x4+x45 <=1 
C178: x4+x47-y4_47 <=1 
C179: x4+x50-y4_50 <=1 
C180: x4+x54 <=1 
C181: x4+x55-y4_55 <=1 
C182: x4+x56-y4_56 <=1 
C183: x4+x57 <=1 
C184: x4+x60-y4_60 <=1 
C185: x5+x7-y5_7 <=1 
C186: x5+x9-y5_9 <=1 
C187: x5+x10 <=1 
C188: x5+x11-y5_11 <=1 
C189: x5+x12-y5_12 <=1 
C190: x5+x13-y5_13 <=1 
C191: x5+x14-y5_14 <=1 
C192: x5+x15 <=1 
C193: x5+x16 <=1 
C194: x5+x17-y5_17 <=1 
C195: x5+x19 <=1 
C196: x5+x20-y5_20 <=1 
C197: x5+x22 <=1 
C198: x5+x23 <=1 
C199: x5+x24 <=1 
C200: x5+x25 <=1 
C201: x5+x31-y5_31 <=1 
C202: x5+x34 <=1 
C203: x5+x35 <=1 
C204: x5+x37 <=1 
C205: x5+x39 <=1 
C206: x5+x41 <=1 
C207: x5+x42 <=1 
C208: x5+x43-y5_43 <=1 
C209: x5+x44 <=1 
C210: x5+x45 <=1 
C211: x5+x46-y5_46 <=1 
C212: x5+x47-y5_47 <=1 
C213: x5+x51-y5_51 <=1 
C214: x5+x52 <=1 
C215: x5+x54-y5_54 <=1 
C216: x5+x55 <=1 
C217: x5+x56 <=1 
C218: x5+x59 <=1 
C219: x5+x60-y5_60 <=1 
C220: x5+x65 <=1 
C221: x5+x66 <=1 
C222: x6+x7-y6_7 <=1 
C223: x6+x8 <=1 
C224: x6+x9-y6_9 <=1 
C225: x6+x10-y6_10 <=1 
C226: x6+x12 <=1 
C227: x6+x13-y6_13 <=1 
C228: x6+x15-y6_15 <=1 
C229: x6+x16 <=1 
C230: x6+x18-y6_18 <=1 
C231: x6+x19 <=1 
C232: x6+x22-y6_22 <=1 
C233: x6+x24 <=1 
C234: x6+x26 <=1 
C235: x6+x28-y6_28 <=1 
C236: x6+x30 <=1 
C237: x6+x31 <=1 
C238: x6+x32 <=1 
C239: x6+x33 <=1 
C240: x6+x35-y6_35 <=1 
C241: x6+x36 <=1 
C242: x6+x38-y6_38 <=1 
C243: x6+x39-y6_39 <=1 
C244: x6+x40-y6_40 <=1 
C245: x6+x41 <=1 
C246: x6+x47-y6_47 <=1 
C247: x6+x48-y6_48 <=1 
C248: x6+x49-y6_49 <=1 
C249: x6+x51 <=1 
C250: x6+x52-y6_52 <=1 
C251: x6+x56 <=1 
C252: x6+x57-y6_57 <=1 
C253: x6+x62-y6_62 <=1 
C254: x6+x63 <=1 
C255: x6+x64 <=1 
C256: x6+x65-y6_65 <=1 
C257: x6+x66-y6_66 <=1 
C258: x7+x9-y7_9 <=1 
C259: x7+x10-y7_10 <=1 
C260: x7+x11 <=1 
C261: x7+x13 <=1 
C262: x7+x14 <=1 
C263: x7+x15-y7_15 <=1 
C264: x7+x16 <=1 
C265: x7+x17 <=1 
C266: x7+x18 <=1 
C267: x7+x19-y7_19 <=1 
C268: x7+x22-y7_22 <=1 
C269: x7+x24-y7_24 <=1 
C270: x7+x27 <=1 
C271: x7+x30 <=1 
C272: x7+x31 <=1 
C273: x7+x32 <=1 
C274: x7+x33-y7_33 <=1 
C275: x7+x34-y7_34 <=1 
C276: x7+x37-y7_37 <=1 
C277: x7+x38-y7_38 <=1 
C278: x7+x46-y7_46 <=1 
C279: x7+x47-y7_47 <=1 
C280: x7+x50 <=1 
C281: x7+x52 <=1 
C282: x7+x55-y7_55 <=1 
C283: x7+x56-y7_56 <=1 
C284: x7+x57-y7_57 <=1 
C285: x7+x58-y7_58 <=1 
C286: x7+x59-y7_59 <=1 
C287: x7+x60 <=1 
C288: x7+x61 <=1 
C289: x7+x62-y7_62 <=1 
C290: x7+x64-y7_64 <=1 
C291: x7+x65 <=1 
C292: x7+x66-y7_66 <=1 
C293: x8+x9-y8_9 <=1 
C294: x8+x10-y8_10 <=1 
C295: x8+x11 <=1 
C296: x8+x12 <=1 
C297: x8+x13 <=1 
C298: x8+x14-y8_14 <=1 
C299: x8+x15 <=1 
C300: x8+x17-y8_17 <=1 
C301: x8+x18-y8_18 <=1 
C302: x8+x20-y8_20 <=1 
C303: x8+x21-y8_21 <=1 
C304: x8+x22 <=1 
C305: x8+x23-y8_23 <=1 
C306: x8+x25 <=1 
C307: x8+x27 <=1 
C308: x8+x28 <=1 
C309: x8+x30 <=1 
C310: x8+x31 <=1 
C311: x8+x33 <=1 
C312: x8+x34-y8_34 <=1 
C313: x8+x35 <=1 
C314: x8+x36 <=1 
C315: x8+x38-y8_38 <=1 
C316: x8+x40-y8_40 <=1 
C317: x8+x41-y8_41 <=1 
C318: x8+x42-y8_42 <=1 
C319: x8+x44 <=1 
C320: x8+x45-y8_45 <=1 
C321: x8+x46 <=1 
C322: x8+x47 <=1 
C323: x8+x48 <=1 
C324: x8+x49 <=1 
C325: x8+x52 <=1 
C326: x8+x53 <=1 
C327: x8+x55-y8_55 <=1 
C328: x8+x57 <=1 
C329: x8+x58-y8_58 <=1 
C330: x8+x59 <=1 
C331: x8+x63-y8_63 <=1 
C332: x8+x64 <=1 
C333: x8+x65 <=1 
C334: x8+x66-y8_66 <=1 
C335: x9+x11 <=1 
C336: x9+x12-y9_12 <=1 
C337: x9+x13 <=1 
C338: x9+x14-y9_14 <=1 
C339: x9+x16 <=1 
C340: x9+x17 <=1 
C341: x9+x20 <=1 
C342: x9+x21-y9_21 <=1 
C343: x9+x22-y9_22 <=1 
C344: x9+x23 <=1 
C345: x9+x24-y9_24 <=1 
C346: x9+x25 <=1 
C347: x9+x29 <=1 
C348: x9+x30 <=1 
C349: x9+x31 <=1 
C350: x9+x32 <=1 
C351: x9+x33 <=1 
C352: x9+x35 <=1 
C353: x9+x37-y9_37 <=1 
C354: x9+x39 <=1 
C355: x9+x40-y9_40 <=1 
C356: x9+x41-y9_41 <=1 
C357: x9+x42-y9_42 <=1 
C358: x9+x45-y9_45 <=1 
C359: x9+x49-y9_49 <=1 
C360: x9+x50 <=1 
C361: x9+x51-y9_51 <=1 
C362: x9+x58 <=1 
C363: x9+x59 <=1 
C364: x9+x60 <=1 
C365: x9+x61-y9_61 <=1 
C366: x10+x11 <=1 
C367: x10+x12-y10_12 <=1 
C368: x10+x16-y10_16 <=1 
C369: x10+x17 <=1 
C370: x10+x18-y10_18 <=1 
C371: x10+x19-y10_19 <=1 
C372: x10+x21-y10_21 <=1 
C373: x10+x23-y10_23 <=1 
C374: x10+x27-y10_27 <=1 
C375: x10+x28 <=1 
C376: x10+x32 <=1 
C377: x10+x33 <=1 
C378: x10+x35 <=1 
C379: x10+x36 <=1 
C380: x10+x37-y10_37 <=1 
C381: x10+x39 <=1 
C382: x10+x43-y10_43 <=1 
C383: x10+x44-y10_44 <=1 
C384: x10+x45-y10_45 <=1 
C385: x10+x52 <=1 
C386: x10+x55 <=1 
C387: x10+x57 <=1 
C388: x10+x59-y10_59 <=1 
C389: x10+x63 <=1 
C390: x10+x64-y10_64 <=1 
C391: x10+x66-y10_66 <=1 
C392: x11+x12-y11_12 <=1 
C393: x11+x13-y11_13 <=1 
C394: x11+x15-y11_15 <=1 
C395: x11+x18 <=1 
C396: x11+x19 <=1 
C397: x11+x21 <=1 
C398: x11+x22-y11_22 <=1 
C399: x11+x24-y11_24 <=1 
C400: x11+x25 <=1 
C401: x11+x26 <=1 
C402: x11+x27-y11_27 <=1 
C403: x11+x28 <=1 
C404: x11+x29 <=1 
C405: x11+x36-y11_36 <=1 
C406: x11+x37 <=1 
C407: x11+x39 <=1 
C408: x11+x40-y11_40 <=1 
C409: x11+x41-y11_41 <=1 
C410: x11+x42 <=1 
C411: x11+x43-y11_43 <=1 
C412: x11+x45 <=1 
C413: x11+x49-y11_49 <=1 
C414: x11+x50-y11_50 <=1 
C415: x11+x53 <=1 
C416: x11+x55 <=1 
C417: x11+x57-y11_57 <=1 
C418: x11+x58 <=1 
C419: x11+x61 <=1 
C420: x11+x63-y11_63 <=1 
C421: x11+x64 <=1 
C422: x11+x65-y11_65 <=1 
C423: x11+x66-y11_66 <=1 
C424: x12+x13-y12_13 <=1 
C425: x12+x14-y12_14 <=1 
C426: x12+x16-y12_16 <=1 
C427: x12+x17 <=1 
C428: x12+x18-y12_18 <=1 
C429: x12+x22-y12_22 <=1 
C430: x12+x23 <=1 
C431: x12+x24 <=1 
C432: x12+x25-y12_25 <=1 
C433: x12+x27-y12_27 <=1 
C434: x12+x28-y12_28 <=1 
C435: x12+x34-y12_34 <=1 
C436: x12+x35 <=1 
C437: x12+x36 <=1 
C438: x12+x37-y12_37 <=1 
C439: x12+x39-y12_39 <=1 
C440: x12+x40-y12_40 <=1 
C441: x12+x43-y12_43 <=1 
C442: x12+x52 <=1 
C443: x12+x53 <=1 
C444: x12+x56-y12_56 <=1 
C445: x12+x57 <=1 
C446: x12+x58 <=1 
C447: x12+x60 <=1 
C448: x12+x61-y12_61 <=1 
C449: x12+x63 <=1 
C450: x12+x64 <=1 
C451: x13+x15-y13_15 <=1 
C452: x13+x16 <=1 
C453: x13+x17 <=1 
C454: x13+x18 <=1 
C455: x13+x19 <=1 
C456: x13+x22 <=1 
C457: x13+x27-y13_27 <=1 
C458: x13+x28 <=1 
C459: x13+x29 <=1 
C460: x13+x32-y13_32 <=1 
C461: x13+x34 <=1 
C462: x13+x35 <=1 
C463: x13+x37 <=1 
C464: x13+x39 <=1 
C465: x13+x41-y13_41 <=1 
C466: x13+x42-y13_42 <=1 
C467: x13+x44-y13_44 <=1 
C468: x13+x45 <=1 
C469: x13+x46-y13_46 <=1 
C470: x13+x47 <=1 
C471: x13+x48 <=1 
C472: x13+x49-y13_49 <=1 
C473: x13+x50 <=1 
C474: x13+x51 <=1 
C475: x13+x52-y13_52 <=1 
C476: x13+x55-y13_55 <=1 
C477: x13+x56-y13_56 <=1 
C478: x13+x58 <=1 
C479: x13+x59-y13_59 <=1 
C480: x13+x61-y13_61 <=1 
C481: x13+x63-y13_63 <=1 
C482: x13+x65 <=1 
C483: x13+x66 <=1 
C484: x14+x20 <=1 
C485: x14+x21-y14_21 <=1 
C486: x14+x24 <=1 
C487: x14+x26-y14_26 <=1 
C488: x14+x34-y14_34 <=1 
C489: x14+x35-y14_35 <=1 
C490: x14+x39 <=1 
C491: x14+x40 <=1 
C492: x14+x41-y14_41 <=1 
C493: x14+x44 <=1 
C494: x14+x46-y14_46 <=1 
C495: x14+x49-y14_49 <=1 
C496: x14+x50-y14_50 <=1 
C497: x14+x51 <=1 
C498: x14+x53 <=1 
C499: x14+x54 <=1 
C500: x14+x55-y14_55 <=1 
C501: x14+x57 <=1 
C502: x14+x60-y14_60 <=1 
C503: x14+x61-y14_61 <=1 
C504: x14+x63-y14_63 <=1 
C505: x14+x64-y14_64 <=1 
C506: x14+x66-y14_66 <=1 
C507: x15+x16-y15_16 <=1 
C508: x15+x17 <=1 
C509: x15+x19-y15_19 <=1 
C510: x15+x20 <=1 
C511: x15+x21 <=1 
C512: x15+x23-y15_23 <=1 
C513: x15+x24-y15_24 <=1 
C514: x15+x25-y15_25 <=1 
C515: x15+x26 <=1 
C516: x15+x27-y15_27 <=1 
C517: x15+x28-y15_28 <=1 
C518: x15+x29-y15_29 <=1 
C519: x15+x31 <=1 
C520: x15+x34-y15_34 <=1 
C521: x15+x38 <=1 
C522: x15+x40 <=1 
C523: x15+x41 <=1 
C524: x15+x42-y15_42 <=1 
C525: x15+x43-y15_43 <=1 
C526: x15+x44 <=1 
C527: x15+x45 <=1 
C528: x15+x46 <=1 
C529: x15+x50-y15_50 <=1 
C530: x15+x51-y15_51 <=1 
C531: x15+x52-y15_52 <=1 
C532: x15+x54 <=1 
C533: x15+x58-y15_58 <=1 
C534: x15+x61-y15_61 <=1 
C535: x15+x62-y15_62 <=1 
C536: x15+x63 <=1 
C537: x15+x66-y15_66 <=1 
C538: x16+x17 <=1 
C539: x16+x18-y16_18 <=1 
C540: x16+x19 <=1 
C541: x16+x21-y16_21 <=1 
C542: x16+x22-y16_22 <=1 
C543: x16+x24-y16_24 <=1 
C544: x16+x26 <=1 
C545: x16+x27 <=1 
C546: x16+x29 <=1 
C547: x16+x30 <=1 
C548: x16+x31 <=1 
C549: x16+x32-y16_32 <=1 
C550: x16+x34-y16_34 <=1 
C551: x16+x37 <=1 
C552: x16+x38 <=1 
C553: x16+x39-y16_39 <=1 
C554: x16+x40 <=1 
C555: x16+x44-y16_44 <=1 
C556: x16+x45-y16_45 <=1 
C557: x16+x47-y16_47 <=1 
C558: x16+x51-y16_51 <=1 
C559: x16+x52-y16_52 <=1 
C560: x16+x54-y16_54 <=1 
C561: x16+x55 <=1 
C562: x16+x58-y16_58 <=1 
C563: x16+x59-y16_59 <=1 
C564: x16+x61-y16_61 <=1 
C565: x16+x65 <=1 
C566: x16+x66 <=1 
C567: x17+x18 <=1 
C568: x17+x19 <=1 
C569: x17+x21-y17_21 <=1 
C570: x17+x22 <=1 
C571: x17+x24-y17_24 <=1 
C572: x17+x26 <=1 
C573: x17+x28-y17_28 <=1 
C574: x17+x29 <=1 
C575: x17+x30 <=1 
C576: x17+x31 <=1 
C577: x17+x32-y17_32 <=1 
C578: x17+x33 <=1 
C579: x17+x34-y17_34 <=1 
C580: x17+x35-y17_35 <=1 
C581: x17+x37-y17_37 <=1 
C582: x17+x38-y17_38 <=1 
C583: x17+x39 <=1 
C584: x17+x43-y17_43 <=1 
C585: x17+x45-y17_45 <=1 
C586: x17+x47 <=1 
C587: x17+x49-y17_49 <=1 
C588: x17+x50 <=1 
C589: x17+x51 <=1 
C590: x17+x52 <=1 
C591: x17+x53-y17_53 <=1 
C592: x17+x54-y17_54 <=1 
C593: x17+x56-y17_56 <=1 
C594: x17+x57 <=1 
C595: x17+x58 <=1 
C596: x17+x59 <=1 
C597: x17+x60-y17_60 <=1 
C598: x17+x62 <=1 
C599: x17+x63-y17_63 <=1 
C600: x17+x64 <=1 
C601: x17+x65-y17_65 <=1 
C602: x18+x21-y18_21 <=1 
C603: x18+x23-y18_23 <=1 
C604: x18+x24-y18_24 <=1 
C605: x18+x26-y18_26 <=1 
C606: x18+x28-y18_28 <=1 
C607: x18+x30 <=1 
C608: x18+x31 <=1 
C609: x18+x32 <=1 
C610: x18+x33 <=1 
C611: x18+x34-y18_34 <=1 
C612: x18+x35-y18_35 <=1 
C613: x18+x36 <=1 
C614: x18+x38 <=1 
C615: x18+x41-y18_41 <=1 
C616: x18+x42 <=1 
C617: x18+x45-y18_45 <=1 
C618: x18+x46 <=1 
C619: x18+x47 <=1 
C620: x18+x49 <=1 
C621: x18+x51-y18_51 <=1 
C622: x18+x52-y18_52 <=1 
C623: x18+x53-y18_53 <=1 
C624: x18+x57-y18_57 <=1 
C625: x18+x59-y18_59 <=1 
C626: x18+x60-y18_60 <=1 
C627: x18+x61 <=1 
C628: x18+x62 <=1 
C629: x18+x64 <=1 
C630: x18+x66-y18_66 <=1 
C631: x19+x20 <=1 
C632: x19+x21 <=1 
C633: x19+x22-y19_22 <=1 
C634: x19+x23 <=1 
C635: x19+x25-y19_25 <=1 
C636: x19+x26 <=1 
C637: x19+x27-y19_27 <=1 
C638: x19+x28-y19_28 <=1 
C639: x19+x29-y19_29 <=1 
C640: x19+x31 <=1 
C641: x19+x32 <=1 
C642: x19+x33-y19_33 <=1 
C643: x19+x34 <=1 
C644: x19+x36-y19_36 <=1 
C645: x19+x37 <=1 
C646: x19+x38 <=1 
C647: x19+x39-y19_39 <=1 
C648: x19+x41-y19_41 <=1 
C649: x19+x42 <=1 
C650: x19+x43-y19_43 <=1 
C651: x19+x44-y19_44 <=1 
C652: x19+x45 <=1 
C653: x19+x46-y19_46 <=1 
C654: x19+x47 <=1 
C655: x19+x48 <=1 
C656: x19+x52-y19_52 <=1 
C657: x19+x53 <=1 
C658: x19+x55 <=1 
C659: x19+x56-y19_56 <=1 
C660: x19+x57 <=1 
C661: x19+x58 <=1 
C662: x19+x59-y19_59 <=1 
C663: x19+x63 <=1 
C664: x19+x66 <=1 
C665: x20+x26-y20_26 <=1 
C666: x20+x29-y20_29 <=1 
C667: x20+x30 <=1 
C668: x20+x32 <=1 
C669: x20+x33 <=1 
C670: x20+x34-y20_34 <=1 
C671: x20+x35-y20_35 <=1 
C672: x20+x36 <=1 
C673: x20+x37-y20_37 <=1 
C674: x20+x38 <=1 
C675: x20+x39-y20_39 <=1 
C676: x20+x41 <=1 
C677: x20+x42 <=1 
C678: x20+x44 <=1 
C679: x20+x46 <=1 
C680: x20+x49-y20_49 <=1 
C681: x20+x50 <=1 
C682: x20+x52-y20_52 <=1 
C683: x20+x53 <=1 
C684: x20+x54-y20_54 <=1 
C685: x20+x55-y20_55 <=1 
C686: x20+x56-y20_56 <=1 
C687: x20+x59-y20_59 <=1 
C688: x20+x60 <=1 
C689: x20+x62-y20_62 <=1 
C690: x20+x64 <=1 
C691: x20+x65 <=1 
C692: x20+x66-y20_66 <=1 
C693: x21+x22-y21_22 <=1 
C694: x21+x25-y21_25 <=1 
C695: x21+x27-y21_27 <=1 
C696: x21+x29 <=1 
C697: x21+x31-y21_31 <=1 
C698: x21+x32 <=1 
C699: x21+x35-y21_35 <=1 
C700: x21+x37 <=1 
C701: x21+x38-y21_38 <=1 
C702: x21+x41 <=1 
C703: x21+x42-y21_42 <=1 
C704: x21+x43-y21_43 <=1 
C705: x21+x44 <=1 
C706: x21+x46 <=1 
C707: x21+x50-y21_50 <=1 
C708: x21+x51 <=1 
C709: x21+x52 <=1 
C710: x21+x54 <=1 
C711: x21+x57 <=1 
C712: x21+x58-y21_58 <=1 
C713: x21+x59-y21_59 <=1 
C714: x21+x61-y21_61 <=1 
C715: x21+x64 <=1 
C716: x21+x65-y21_65 <=1 
C717: x21+x66 <=1 
C718: x22+x25 <=1 
C719: x22+x26-y22_26 <=1 
C720: x22+x27 <=1 
C721: x22+x28 <=1 
C722: x22+x29 <=1 
C723: x22+x34-y22_34 <=1 
C724: x22+x37 <=1 
C725: x22+x39 <=1 
C726: x22+x41 <=1 
C727: x22+x42-y22_42 <=1 
C728: x22+x43 <=1 
C729: x22+x44-y22_44 <=1 
C730: x22+x45-y22_45 <=1 
C731: x22+x46-y22_46 <=1 
C732: x22+x47-y22_47 <=1 
C733: x22+x48-y22_48 <=1 
C734: x22+x49-y22_49 <=1 
C735: x22+x51-y22_51 <=1 
C736: x22+x53-y22_53 <=1 
C737: x22+x54 <=1 
C738: x22+x55 <=1 
C739: x22+x56 <=1 
C740: x22+x57-y22_57 <=1 
C741: x22+x58-y22_58 <=1 
C742: x22+x59-y22_59 <=1 
C743: x22+x61 <=1 
C744: x22+x62 <=1 
C745: x22+x64 <=1 
C746: x22+x65 <=1 
C747: x22+x66-y22_66 <=1 
C748: x23+x26-y23_26 <=1 
C749: x23+x27-y23_27 <=1 
C750: x23+x28 <=1 
C751: x23+x29 <=1 
C752: x23+x30-y23_30 <=1 
C753: x23+x32-y23_32 <=1 
C754: x23+x34 <=1 
C755: x23+x35 <=1 
C756: x23+x36-y23_36 <=1 
C757: x23+x37-y23_37 <=1 
C758: x23+x38-y23_38 <=1 
C759: x23+x41-y23_41 <=1 
C760: x23+x42-y23_42 <=1 
C761: x23+x47-y23_47 <=1 
C762: x23+x50 <=1 
C763: x23+x51-y23_51 <=1 
C764: x23+x52 <=1 
C765: x23+x53-y23_53 <=1 
C766: x23+x56-y23_56 <=1 
C767: x23+x58 <=1 
C768: x23+x60-y23_60 <=1 
C769: x23+x62 <=1 
C770: x23+x64-y23_64 <=1 
C771: x23+x66 <=1 
C772: x24+x25 <=1 
C773: x24+x27 <=1 
C774: x24+x28-y24_28 <=1 
C775: x24+x29 <=1 
C776: x24+x31 <=1 
C777: x24+x32 <=1 
C778: x24+x34 <=1 
C779: x24+x36-y24_36 <=1 
C780: x24+x37 <=1 
C781: x24+x39-y24_39 <=1 
C782: x24+x41 <=1 
C783: x24+x44-y24_44 <=1 
C784: x24+x47-y24_47 <=1 
C785: x24+x48 <=1 
C786: x24+x49 <=1 
C787: x24+x50 <=1 
C788: x24+x51 <=1 
C789: x24+x54-y24_54 <=1 
C790: x24+x58 <=1 
C791: x24+x62-y24_62 <=1 
C792: x24+x65-y24_65 <=1 
C793: x24+x66-y24_66 <=1 
C794: x25+x26-y25_26 <=1 
C795: x25+x27-y25_27 <=1 
C796: x25+x28-y25_28 <=1 
C797: x25+x29 <=1 
C798: x25+x32 <=1 
C799: x25+x33 <=1 
C800: x25+x35-y25_35 <=1 
C801: x25+x36 <=1 
C802: x25+x37 <=1 
C803: x25+x38-y25_38 <=1 
C804: x25+x39-y25_39 <=1 
C805: x25+x40-y25_40 <=1 
C806: x25+x46-y25_46 <=1 
C807: x25+x47 <=1 
C808: x25+x48-y25_48 <=1 
C809: x25+x49 <=1 
C810: x25+x51-y25_51 <=1 
C811: x25+x52 <=1 
C812: x25+x53-y25_53 <=1 
C813: x25+x54 <=1 
C814: x25+x55 <=1 
C815: x25+x56-y25_56 <=1 
C816: x25+x57-y25_57 <=1 
C817: x25+x62-y25_62 <=1 
C818: x25+x66 <=1 
C819: x26+x28-y26_28 <=1 
C820: x26+x33-y26_33 <=1 
C821: x26+x34-y26_34 <=1 
C822: x26+x35-y26_35 <=1 
C823: x26+x37-y26_37 <=1 
C824: x26+x39-y26_39 <=1 
C825: x26+x41 <=1 
C826: x26+x42-y26_42 <=1 
C827: x26+x43 <=1 
C828: x26+x47 <=1 
C829: x26+x48-y26_48 <=1 
C830: x26+x49 <=1 
C831: x26+x50-y26_50 <=1 
C832: x26+x52-y26_52 <=1 
C833: x26+x53 <=1 
C834: x26+x56-y26_56 <=1 
C835: x26+x58-y26_58 <=1 
C836: x26+x59 <=1 
C837: x26+x60-y26_60 <=1 
C838: x26+x63 <=1 
C839: x26+x64 <=1 
C840: x26+x65-y26_65 <=1 
C841: x27+x28 <=1 
C842: x27+x34-y27_34 <=1 
C843: x27+x35-y27_35 <=1 
C844: x27+x36 <=1 
C845: x27+x37 <=1 
C846: x27+x40 <=1 
C847: x27+x43 <=1 
C848: x27+x48-y27_48 <=1 
C849: x27+x49 <=1 
C850: x27+x51 <=1 
C851: x27+x52-y27_52 <=1 
C852: x27+x53 <=1 
C853: x27+x54-y27_54 <=1 
C854: x27+x55 <=1 
C855: x27+x56-y27_56 <=1 
C856: x27+x57-y27_57 <=1 
C857: x27+x58-y27_58 <=1 
C858: x27+x59 <=1 
C859: x27+x61-y27_61 <=1 
C860: x27+x62-y27_62 <=1 
C861: x27+x63-y27_63 <=1 
C862: x27+x64-y27_64 <=1 
C863: x27+x65 <=1 
C864: x27+x66-y27_66 <=1 
C865: x28+x30 <=1 
C866: x28+x31 <=1 
C867: x28+x32 <=1 
C868: x28+x33 <=1 
C869: x28+x34 <=1 
C870: x28+x37-y28_37 <=1 
C871: x28+x39 <=1 
C872: x28+x41 <=1 
C873: x28+x43-y28_43 <=1 
C874: x28+x45 <=1 
C875: x28+x47 <=1 
C876: x28+x49-y28_49 <=1 
C877: x28+x50 <=1 
C878: x28+x51 <=1 
C879: x28+x52-y28_52 <=1 
C880: x28+x54 <=1 
C881: x28+x55 <=1 
C882: x28+x57 <=1 
C883: x28+x59 <=1 
C884: x28+x60 <=1 
C885: x28+x61 <=1 
C886: x28+x62 <=1 
C887: x28+x64 <=1 
C888: x28+x65-y28_65 <=1 
C889: x29+x30 <=1 
C890: x29+x36-y29_36 <=1 
C891: x29+x39-y29_39 <=1 
C892: x29+x40 <=1 
C893: x29+x41-y29_41 <=1 
C894: x29+x42 <=1 
C895: x29+x44-y29_44 <=1 
C896: x29+x45 <=1 
C897: x29+x49 <=1 
C898: x29+x50-y29_50 <=1 
C899: x29+x52-y29_52 <=1 
C900: x29+x53-y29_53 <=1 
C901: x29+x54-y29_54 <=1 
C902: x29+x56-y29_56 <=1 
C903: x29+x57 <=1 
C904: x29+x58-y29_58 <=1 
C905: x29+x59-y29_59 <=1 
C906: x29+x60 <=1 
C907: x29+x61 <=1 
C908: x29+x62 <=1 
C909: x29+x63 <=1 
C910: x29+x65-y29_65 <=1 
C911: x29+x66 <=1 
C912: x30+x31-y30_31 <=1 
C913: x30+x33-y30_33 <=1 
C914: x30+x35-y30_35 <=1 
C915: x30+x39 <=1 
C916: x30+x43-y30_43 <=1 
C917: x30+x45 <=1 
C918: x30+x49-y30_49 <=1 
C919: x30+x50-y30_50 <=1 
C920: x30+x52-y30_52 <=1 
C921: x30+x53 <=1 
C922: x30+x54 <=1 
C923: x30+x55-y30_55 <=1 
C924: x30+x57-y30_57 <=1 
C925: x30+x58-y30_58 <=1 
C926: x30+x59 <=1 
C927: x30+x60-y30_60 <=1 
C928: x30+x61 <=1 
C929: x30+x62 <=1 
C930: x30+x63-y30_63 <=1 
C931: x30+x65-y30_65 <=1 
C932: x30+x66 <=1 
C933: x31+x32-y31_32 <=1 
C934: x31+x33-y31_33 <=1 
C935: x31+x34 <=1 
C936: x31+x36-y31_36 <=1 
C937: x31+x37-y31_37 <=1 
C938: x31+x39 <=1 
C939: x31+x40-y31_40 <=1 
C940: x31+x42 <=1 
C941: x31+x44 <=1 
C942: x31+x45 <=1 
C943: x31+x46-y31_46 <=1 
C944: x31+x47 <=1 
C945: x31+x48-y31_48 <=1 
C946: x31+x49-y31_49 <=1 
C947: x31+x50-y31_50 <=1 
C948: x31+x51-y31_51 <=1 
C949: x31+x52 <=1 
C950: x31+x54-y31_54 <=1 
C951: x31+x56 <=1 
C952: x31+x60-y31_60 <=1 
C953: x31+x61 <=1 
C954: x31+x63 <=1 
C955: x31+x64-y31_64 <=1 
C956: x31+x65 <=1 
C957: x32+x34 <=1 
C958: x32+x35 <=1 
C959: x32+x37 <=1 
C960: x32+x40 <=1 
C961: x32+x41-y32_41 <=1 
C962: x32+x42-y32_42 <=1 
C963: x32+x43-y32_43 <=1 
C964: x32+x45 <=1 
C965: x32+x47 <=1 
C966: x32+x50-y32_50 <=1 
C967: x32+x51 <=1 
C968: x32+x52-y32_52 <=1 
C969: x32+x53-y32_53 <=1 
C970: x32+x54-y32_54 <=1 
C971: x32+x55-y32_55 <=1 
C972: x32+x57 <=1 
C973: x32+x58-y32_58 <=1 
C974: x32+x59-y32_59 <=1 
C975: x32+x60 <=1 
C976: x32+x61 <=1 
C977: x32+x64-y32_64 <=1 
C978: x32+x65-y32_65 <=1 
C979: x32+x66 <=1 
C980: x33+x34-y33_34 <=1 
C981: x33+x35 <=1 
C982: x33+x36-y33_36 <=1 
C983: x33+x37-y33_37 <=1 
C984: x33+x38 <=1 
C985: x33+x39 <=1 
C986: x33+x40 <=1 
C987: x33+x44-y33_44 <=1 
C988: x33+x48 <=1 
C989: x33+x50 <=1 
C990: x33+x53 <=1 
C991: x33+x54 <=1 
C992: x33+x56 <=1 
C993: x33+x59 <=1 
C994: x33+x62-y33_62 <=1 
C995: x33+x63-y33_63 <=1 
C996: x33+x66 <=1 
C997: x34+x35 <=1 
C998: x34+x37-y34_37 <=1 
C999: x34+x41-y34_41 <=1 
C1000: x34+x42-y34_42 <=1 
C1001: x34+x43 <=1 
C1002: x34+x44-y34_44 <=1 
C1003: x34+x45-y34_45 <=1 
C1004: x34+x48 <=1 
C1005: x34+x50-y34_50 <=1 
C1006: x34+x51-y34_51 <=1 
C1007: x34+x52-y34_52 <=1 
C1008: x34+x53-y34_53 <=1 
C1009: x34+x55 <=1 
C1010: x34+x56-y34_56 <=1 
C1011: x34+x58-y34_58 <=1 
C1012: x34+x59-y34_59 <=1 
C1013: x34+x60 <=1 
C1014: x34+x61-y34_61 <=1 
C1015: x34+x62-y34_62 <=1 
C1016: x34+x64 <=1 
C1017: x34+x65 <=1 
C1018: x34+x66 <=1 
C1019: x35+x36-y35_36 <=1 
C1020: x35+x37-y35_37 <=1 
C1021: x35+x38-y35_38 <=1 
C1022: x35+x42-y35_42 <=1 
C1023: x35+x43 <=1 
C1024: x35+x45 <=1 
C1025: x35+x46-y35_46 <=1 
C1026: x35+x47-y35_47 <=1 
C1027: x35+x48-y35_48 <=1 
C1028: x35+x51 <=1 
C1029: x35+x52-y35_52 <=1 
C1030: x35+x53-y35_53 <=1 
C1031: x35+x54 <=1 
C1032: x35+x55 <=1 
C1033: x35+x56-y35_56 <=1 
C1034: x35+x57 <=1 
C1035: x35+x58 <=1 
C1036: x35+x61-y35_61 <=1 
C1037: x35+x63-y35_63 <=1 
C1038: x35+x64 <=1 
C1039: x35+x66-y35_66 <=1 
C1040: x36+x41-y36_41 <=1 
C1041: x36+x42-y36_42 <=1 
C1042: x36+x43-y36_43 <=1 
C1043: x36+x45-y36_45 <=1 
C1044: x36+x47 <=1 
C1045: x36+x48 <=1 
C1046: x36+x51-y36_51 <=1 
C1047: x36+x52 <=1 
C1048: x36+x53 <=1 
C1049: x36+x54-y36_54 <=1 
C1050: x36+x56 <=1 
C1051: x36+x57-y36_57 <=1 
C1052: x36+x58 <=1 
C1053: x36+x63-y36_63 <=1 
C1054: x36+x64 <=1 
C1055: x36+x66 <=1 
C1056: x37+x38-y37_38 <=1 
C1057: x37+x39-y37_39 <=1 
C1058: x37+x40 <=1 
C1059: x37+x41 <=1 
C1060: x37+x42-y37_42 <=1 
C1061: x37+x44 <=1 
C1062: x37+x45-y37_45 <=1 
C1063: x37+x48-y37_48 <=1 
C1064: x37+x52 <=1 
C1065: x37+x53-y37_53 <=1 
C1066: x37+x54 <=1 
C1067: x37+x55-y37_55 <=1 
C1068: x37+x58-y37_58 <=1 
C1069: x37+x59-y37_59 <=1 
C1070: x37+x60 <=1 
C1071: x37+x61 <=1 
C1072: x37+x62 <=1 
C1073: x37+x64-y37_64 <=1 
C1074: x37+x65-y37_65 <=1 
C1075: x37+x66 <=1 
C1076: x38+x40 <=1 
C1077: x38+x42-y38_42 <=1 
C1078: x38+x45 <=1 
C1079: x38+x47 <=1 
C1080: x38+x49-y38_49 <=1 
C1081: x38+x50 <=1 
C1082: x38+x51-y38_51 <=1 
C1083: x38+x53-y38_53 <=1 
C1084: x38+x54 <=1 
C1085: x38+x56 <=1 
C1086: x38+x59 <=1 
C1087: x38+x60-y38_60 <=1 
C1088: x38+x61-y38_61 <=1 
C1089: x38+x62 <=1 
C1090: x38+x64-y38_64 <=1 
C1091: x39+x40-y39_40 <=1 
C1092: x39+x43-y39_43 <=1 
C1093: x39+x45-y39_45 <=1 
C1094: x39+x48 <=1 
C1095: x39+x49-y39_49 <=1 
C1096: x39+x50-y39_50 <=1 
C1097: x39+x51 <=1 
C1098: x39+x53-y39_53 <=1 
C1099: x39+x55-y39_55 <=1 
C1100: x39+x64-y39_64 <=1 
C1101: x40+x41-y40_41 <=1 
C1102: x40+x46 <=1 
C1103: x40+x47-y40_47 <=1 
C1104: x40+x49-y40_49 <=1 
C1105: x40+x51 <=1 
C1106: x40+x54 <=1 
C1107: x40+x56-y40_56 <=1 
C1108: x40+x58 <=1 
C1109: x40+x59-y40_59 <=1 
C1110: x40+x60-y40_60 <=1 
C1111: x40+x61-y40_61 <=1 
C1112: x40+x62-y40_62 <=1 
C1113: x40+x64-y40_64 <=1 
C1114: x40+x65-y40_65 <=1 
C1115: x40+x66 <=1 
C1116: x41+x42-y41_42 <=1 
C1117: x41+x44-y41_44 <=1 
C1118: x41+x45-y41_45 <=1 
C1119: x41+x46-y41_46 <=1 
C1120: x41+x47-y41_47 <=1 
C1121: x41+x49 <=1 
C1122: x41+x50 <=1 
C1123: x41+x55-y41_55 <=1 
C1124: x41+x56-y41_56 <=1 
C1125: x41+x57 <=1 
C1126: x41+x58-y41_58 <=1 
C1127: x41+x59 <=1 
C1128: x41+x60 <=1 
C1129: x41+x61 <=1 
C1130: x41+x64 <=1 
C1131: x41+x65 <=1 
C1132: x41+x66 <=1 
C1133: x42+x43 <=1 
C1134: x42+x46-y42_46 <=1 
C1135: x42+x47 <=1 
C1136: x42+x48 <=1 
C1137: x42+x49 <=1 
C1138: x42+x51 <=1 
C1139: x42+x52 <=1 
C1140: x42+x53-y42_53 <=1 
C1141: x42+x54-y42_54 <=1 
C1142: x42+x57-y42_57 <=1 
C1143: x42+x58-y42_58 <=1 
C1144: x42+x59 <=1 
C1145: x42+x61 <=1 
C1146: x42+x62-y42_62 <=1 
C1147: x42+x63-y42_63 <=1 
C1148: x42+x64 <=1 
C1149: x42+x65-y42_65 <=1 
C1150: x42+x66 <=1 
C1151: x43+x48 <=1 
C1152: x43+x49-y43_49 <=1 
C1153: x43+x50-y43_50 <=1 
C1154: x43+x51-y43_51 <=1 
C1155: x43+x52-y43_52 <=1 
C1156: x43+x53-y43_53 <=1 
C1157: x43+x54-y43_54 <=1 
C1158: x43+x58-y43_58 <=1 
C1159: x43+x60-y43_60 <=1 
C1160: x43+x62-y43_62 <=1 
C1161: x43+x63-y43_63 <=1 
C1162: x43+x64 <=1 
C1163: x43+x65 <=1 
C1164: x43+x66-y43_66 <=1 
C1165: x44+x46-y44_46 <=1 
C1166: x44+x48-y44_48 <=1 
C1167: x44+x50-y44_50 <=1 
C1168: x44+x51 <=1 
C1169: x44+x52 <=1 
C1170: x44+x54-y44_54 <=1 
C1171: x44+x56-y44_56 <=1 
C1172: x44+x57-y44_57 <=1 
C1173: x44+x59 <=1 
C1174: x44+x62 <=1 
C1175: x44+x63-y44_63 <=1 
C1176: x44+x66-y44_66 <=1 
C1177: x45+x46 <=1 
C1178: x45+x47-y45_47 <=1 
C1179: x45+x48 <=1 
C1180: x45+x49 <=1 
C1181: x45+x50-y45_50 <=1 
C1182: x45+x51-y45_51 <=1 
C1183: x45+x52-y45_52 <=1 
C1184: x45+x53 <=1 
C1185: x45+x54-y45_54 <=1 
C1186: x45+x56 <=1 
C1187: x45+x60-y45_60 <=1 
C1188: x45+x61 <=1 
C1189: x45+x64-y45_64 <=1 
C1190: x45+x65 <=1 
C1191: x45+x66-y45_66 <=1 
C1192: x46+x47 <=1 
C1193: x46+x48 <=1 
C1194: x46+x49-y46_49 <=1 
C1195: x46+x50-y46_50 <=1 
C1196: x46+x51-y46_51 <=1 
C1197: x46+x55-y46_55 <=1 
C1198: x46+x56 <=1 
C1199: x46+x57-y46_57 <=1 
C1200: x46+x58 <=1 
C1201: x46+x59-y46_59 <=1 
C1202: x46+x60-y46_60 <=1 
C1203: x46+x62-y46_62 <=1 
C1204: x46+x63-y46_63 <=1 
C1205: x46+x64-y46_64 <=1 
C1206: x46+x65-y46_65 <=1 
C1207: x47+x50-y47_50 <=1 
C1208: x47+x51-y47_51 <=1 
C1209: x47+x52 <=1 
C1210: x47+x53 <=1 
C1211: x47+x56-y47_56 <=1 
C1212: x47+x58-y47_58 <=1 
C1213: x47+x59-y47_59 <=1 
C1214: x47+x60-y47_60 <=1 
C1215: x47+x63 <=1 
C1216: x47+x64 <=1 
C1217: x47+x65 <=1 
C1218: x47+x66-y47_66 <=1 
C1219: x48+x49-y48_49 <=1 
C1220: x48+x51-y48_51 <=1 
C1221: x48+x52 <=1 
C1222: x48+x54 <=1 
C1223: x48+x55 <=1 
C1224: x48+x57-y48_57 <=1 
C1225: x48+x58-y48_58 <=1 
C1226: x48+x60-y48_60 <=1 
C1227: x48+x61-y48_61 <=1 
C1228: x48+x63-y48_63 <=1 
C1229: x49+x52-y49_52 <=1 
C1230: x49+x53-y49_53 <=1 
C1231: x49+x54-y49_54 <=1 
C1232: x49+x61-y49_61 <=1 
C1233: x49+x63 <=1 
C1234: x49+x65-y49_65 <=1 
C1235: x50+x51 <=1 
C1236: x50+x52 <=1 
C1237: x50+x54-y50_54 <=1 
C1238: x50+x55 <=1 
C1239: x50+x56-y50_56 <=1 
C1240: x50+x57 <=1 
C1241: x50+x59 <=1 
C1242: x50+x60 <=1 
C1243: x50+x62 <=1 
C1244: x51+x53-y51_53 <=1 
C1245: x51+x56-y51_56 <=1 
C1246: x51+x59-y51_59 <=1 
C1247: x51+x61-y51_61 <=1 
C1248: x51+x62-y51_62 <=1 
C1249: x51+x64 <=1 
C1250: x52+x54 <=1 
C1251: x52+x57 <=1 
C1252: x52+x58-y52_58 <=1 
C1253: x52+x60-y52_60 <=1 
C1254: x52+x61 <=1 
C1255: x52+x62 <=1 
C1256: x52+x63-y52_63 <=1 
C1257: x52+x64 <=1 
C1258: x52+x65-y52_65 <=1 
C1259: x52+x66-y52_66 <=1 
C1260: x53+x54-y53_54 <=1 
C1261: x53+x55 <=1 
C1262: x53+x56 <=1 
C1263: x53+x58-y53_58 <=1 
C1264: x53+x61 <=1 
C1265: x53+x63 <=1 
C1266: x53+x64-y53_64 <=1 
C1267: x53+x65-y53_65 <=1 
C1268: x54+x55 <=1 
C1269: x54+x56-y54_56 <=1 
C1270: x54+x57-y54_57 <=1 
C1271: x54+x58-y54_58 <=1 
C1272: x54+x60 <=1 
C1273: x54+x61 <=1 
C1274: x54+x62 <=1 
C1275: x54+x63-y54_63 <=1 
C1276: x54+x65-y54_65 <=1 
C1277: x54+x66-y54_66 <=1 
C1278: x55+x57 <=1 
C1279: x55+x58 <=1 
C1280: x55+x59-y55_59 <=1 
C1281: x55+x61 <=1 
C1282: x55+x62-y55_62 <=1 
C1283: x55+x64 <=1 
C1284: x55+x65 <=1 
C1285: x56+x58 <=1 
C1286: x56+x59-y56_59 <=1 
C1287: x56+x60 <=1 
C1288: x56+x61-y56_61 <=1 
C1289: x56+x62 <=1 
C1290: x56+x63 <=1 
C1291: x56+x65-y56_65 <=1 
C1292: x56+x66-y56_66 <=1 
C1293: x57+x58 <=1 
C1294: x57+x60-y57_60 <=1 
C1295: x57+x61-y57_61 <=1 
C1296: x57+x64-y57_64 <=1 
C1297: x57+x66 <=1 
C1298: x58+x59 <=1 
C1299: x58+x60-y58_60 <=1 
C1300: x58+x61 <=1 
C1301: x58+x62 <=1 
C1302: x58+x63-y58_63 <=1 
C1303: x58+x66 <=1 
C1304: x59+x60-y59_60 <=1 
C1305: x59+x61 <=1 
C1306: x59+x62-y59_62 <=1 
C1307: x59+x66 <=1 
C1308: x60+x61 <=1 
C1309: x60+x63 <=1 
C1310: x60+x64 <=1 
C1311: x60+x65-y60_65 <=1 
C1312: x61+x62-y61_62 <=1 
C1313: x61+x63-y61_63 <=1 
C1314: x61+x65-y61_65 <=1 
C1315: x61+x66 <=1 
C1316: x62+x64 <=1 
C1317: x63+x65 <=1 
C1318: x63+x66 <=1 
C1319: x64+x66-y64_66 <=1 
C1320: x65+x66-y65_66 <=1 

binary
x0
x1
x2
x3
x4
x5
x6
x7
x8
x9
x10
x11
x12
x13
x14
x15
x16
x17
x18
x19
x20
x21
x22
x23
x24
x25
x26
x27
x28
x29
x30
x31
x32
x33
x34
x35
x36
x37
x38
x39
x40
x41
x42
x43
x44
x45
x46
x47
x48
x49
x50
x51
x52
x53
x54
x55
x56
x57
x58
x59
x60
x61
x62
x63
x64
x65
x66
