problem_generation/data/GISP/train/er_n=67_m=1320_p=0.60_SET2_setparam=100.00_alpha=0.50_490.sol
objective value:                                 1270
x2                                                  1 	(obj:100)
x11                                                 1 	(obj:100)
x13                                                 1 	(obj:100)
x14                                                 1 	(obj:100)
x23                                                 1 	(obj:100)
x30                                                 1 	(obj:100)
x31                                                 1 	(obj:100)
x32                                                 1 	(obj:100)
x33                                                 1 	(obj:100)
x36                                                 1 	(obj:100)
x43                                                 1 	(obj:100)
x46                                                 1 	(obj:100)
x49                                                 1 	(obj:100)
y2_32                                               1 	(obj:-1)
y36_43                                              1 	(obj:-1)
y13_46                                              1 	(obj:-1)
y13_32                                              1 	(obj:-1)
y2_30                                               1 	(obj:-1)
y43_49                                              1 	(obj:-1)
y13_49                                              1 	(obj:-1)
y31_33                                              1 	(obj:-1)
y46_49                                              1 	(obj:-1)
y30_31                                              1 	(obj:-1)
y11_36                                              1 	(obj:-1)
y30_49                                              1 	(obj:-1)
y31_32                                              1 	(obj:-1)
y14_46                                              1 	(obj:-1)
y11_13                                              1 	(obj:-1)
y11_49                                              1 	(obj:-1)
y33_36                                              1 	(obj:-1)
y14_49                                              1 	(obj:-1)
y32_43                                              1 	(obj:-1)
y31_46                                              1 	(obj:-1)
y2_14                                               1 	(obj:-1)
y31_36                                              1 	(obj:-1)
y23_32                                              1 	(obj:-1)
y23_36                                              1 	(obj:-1)
y31_49                                              1 	(obj:-1)
y30_43                                              1 	(obj:-1)
y11_43                                              1 	(obj:-1)
y30_33                                              1 	(obj:-1)
y23_30                                              1 	(obj:-1)
y2_46                                               1 	(obj:-1)
